cvc5/e240506803f8ad8d3bd802371317f10815fd940717184312be58f172_hard.smt2
(set-info :smt-lib-version 2.6)
(set-logic QF_SLIA)
(set-info :source |
Generated by: Andrew Reynolds
Generated on: 2018-04-25
Generator: PyEx, converted to v2.6 by CVC4
Application: Symbolic Execution of Python Programs
Target solver: CVC4, Z3, Z3str2
Publications: "Scaling Up DPLL(T) String Solvers Using Context-Dependent Simplification" by A. Reynolds, M. Woo, C. Barrett, D. Brumley, T. Liang, and C. Tinelli, CAV 2017.
|)
(set-info :license "https://creativecommons.org/licenses/by/4.0/")
(set-info :category "industrial")
(set-info :status unknown)



(declare-fun key2 () String)
(declare-fun value2 () String)
(declare-const part_0_1596 String)
(declare-const num_0_2232 Int)
(declare-const rest_1_7860 String)
(assert (and (and (and (and (and (and (and (and (and (and (and (and (and (and (and (and (and (and (and (and (and (and (and (and (and (and (and (and (and (and (and (and (and (and (and (and (and (and (and (and (and (and (and (and (and (and (and (and (and (and (and (and (and (and (and (and (and (and (and (and (and (and (and (and (and (and (not (not (not (= (ite (= (str.at (str.substr (str.substr value2 1 (- (str.len value2) 1)) 1 (- (str.len (str.substr value2 1 (- (str.len value2) 1))) 1)) 0) "\u{d}") 1 0) 0)))) (not (not (= (ite (= (str.at (str.substr (str.substr value2 1 (- (str.len value2) 1)) 1 (- (str.len (str.substr value2 1 (- (str.len value2) 1))) 1)) 0) "\u{a}") 1 0) 0)))) (not (not (= (ite (= (str.at (str.substr (str.substr value2 1 (- (str.len value2) 1)) 1 (- (str.len (str.substr value2 1 (- (str.len value2) 1))) 1)) 0) "\u{9}") 1 0) 0)))) (not (not (= (ite (= (str.at (str.substr (str.substr value2 1 (- (str.len value2) 1)) 1 (- (str.len (str.substr value2 1 (- (str.len value2) 1))) 1)) 0) " ") 1 0) 0)))) (not (not (= (ite (= (str.len (str.substr (str.substr value2 1 (- (str.len value2) 1)) 1 (- (str.len (str.substr value2 1 (- (str.len value2) 1))) 1))) 0) 1 0) 0)))) (not (= (ite (= (str.at (str.substr value2 1 (- (str.len value2) 1)) 0) "\u{c}") 1 0) 0))) (not (not (= (ite (= (str.at (str.substr value2 1 (- (str.len value2) 1)) 0) "\u{b}") 1 0) 0)))) (not (not (= (ite (= (str.at (str.substr value2 1 (- (str.len value2) 1)) 0) "\u{d}") 1 0) 0)))) (not (not (= (ite (= (str.at (str.substr value2 1 (- (str.len value2) 1)) 0) "\u{a}") 1 0) 0)))) (not (not (= (ite (= (str.at (str.substr value2 1 (- (str.len value2) 1)) 0) "\u{9}") 1 0) 0)))) (not (not (= (ite (= (str.at (str.substr value2 1 (- (str.len value2) 1)) 0) " ") 1 0) 0)))) (not (not (= (ite (= (str.len (str.substr value2 1 (- (str.len value2) 1))) 0) 1 0) 0)))) (not (= (ite (= (str.at value2 0) "\u{d}") 1 0) 0))) (not (not (= (ite (= (str.at value2 0) "\u{a}") 1 0) 0)))) (not (not (= (ite (= (str.at value2 0) "\u{9}") 1 0) 0)))) (not (not (= (ite (= (str.at value2 0) " ") 1 0) 0)))) (not (not (= (ite (= (str.len value2) 0) 1 0) 0)))) (not (= (ite (= (str.indexof value2 "=" 0) (- 1)) 1 0) 0))) (not (not (= (ite (not (= (str.indexof value2 "=" 0) (- 1))) 1 0) 0)))) (not (not (= (ite (str.contains value2 ",") 1 0) 0)))) (not (not (= (ite (= (str.len value2) 0) 1 0) 0)))) (not (= (ite (= key2 "cache-control") 1 0) 0))) (not (= (ite (= key2 "cache-control") 1 0) 0))) (>= 1 0)) (>= (- (str.len value2) 1) 0)) (>= 1 0)) (>= (- (str.len value2) 1) 0)) (>= 1 0)) (>= (- (str.len (str.substr value2 1 (- (str.len value2) 1))) 1) 0)) (>= 1 0)) (>= (- (str.len value2) 1) 0)) (>= 1 0)) (>= (- (str.len value2) 1) 0)) (>= 1 0)) (>= (- (str.len (str.substr value2 1 (- (str.len value2) 1))) 1) 0)) (>= 1 0)) (>= (- (str.len value2) 1) 0)) (>= 1 0)) (>= (- (str.len value2) 1) 0)) (>= 1 0)) (>= (- (str.len (str.substr value2 1 (- (str.len value2) 1))) 1) 0)) (>= 1 0)) (>= (- (str.len value2) 1) 0)) (>= 1 0)) (>= (- (str.len value2) 1) 0)) (>= 1 0)) (>= (- (str.len (str.substr value2 1 (- (str.len value2) 1))) 1) 0)) (>= 1 0)) (>= (- (str.len value2) 1) 0)) (>= 1 0)) (>= (- (str.len value2) 1) 0)) (>= 1 0)) (>= (- (str.len (str.substr value2 1 (- (str.len value2) 1))) 1) 0)) (>= 1 0)) (>= (- (str.len value2) 1) 0)) (>= 1 0)) (>= (- (str.len value2) 1) 0)) (>= 1 0)) (>= (- (str.len value2) 1) 0)) (>= 1 0)) (>= (- (str.len value2) 1) 0)) (>= 1 0)) (>= (- (str.len value2) 1) 0)) (>= 1 0)) (>= (- (str.len value2) 1) 0)) (>= 1 0)) (>= (- (str.len value2) 1) 0)))
(assert (= (str.split_at key2 "||" 0) part_0_1596))
(assert (str.suffixof "z" part_0_1596))
(assert (= (str.num_splits key2 "||") num_0_2232))
(assert (<= num_0_2232 6))
(assert (and (>= (str.num_splits key2 "||") 1) (<= (str.num_splits key2 "||") 4)))
(assert (= (str.split_rest value2 "/" 2) "7ce39bc758clj"))
(assert (= (str.split_rest value2 "/" 0) rest_1_7860))
(assert (>= (str.indexof rest_1_7860 "ab" 0) 0))
(assert (and (>= (str.num_splits value2 "/") 3) (<= (str.num_splits value2 "/") 6)))
(assert (and (>= (str.num_splits value2 "/") 2) (<= (str.num_splits value2 "/") 6)))
(check-sat)

(get-model)
