cvc5/e240506803f8ad8d3bd802371317f10815fd940717184312be58f172_hard.txt
(define-fun key2 () String "cache-control")
(define-fun value2 () String "\u{d}\u{c}\u{d}")
(define-fun part_0_1596 () String "z")
(define-fun num_0_2232 () Int 1)
(define-fun rest_1_7860 () String "ab")